[2026-03-24T16:14:13.432Z] Pipeline "set_vm-3-t1_vm-3-t1_s032_g001" → 2026_03_24_16_14_13_set_vm-3-t1_vm-3-t1_s032_g001_max.sol
Set parameter Username
Set parameter LicenseID to value 2796068
Set parameter LogFile to value "gurobi.log"
Using license file /opt/gurobi/gurobi.lic
Academic license - for non-commercial use only - expires 2027-03-23

Gurobi Optimizer version 13.0.1 build v13.0.1rc0 (linux64 - "Ubuntu 24.04.4 LTS")
Copyright (c) 2026, Gurobi Optimization, LLC

Warning: Duplicate section found (read 'binary') - Is a variable name equal to an LP file format keyword?
Warning: Duplicate section found (read 'binary') - Is a variable name equal to an LP file format keyword?
Warning: Duplicate section found (read 'binary') - Is a variable name equal to an LP file format keyword?
Warning: Duplicate section found (read 'binary') - Is a variable name equal to an LP file format keyword?
Warning: Duplicate section found (read 'binary') - Is a variable name equal to an LP file format keyword?
Warning: Duplicate section found (read 'binary') - Is a variable name equal to an LP file format keyword?
Warning: Duplicate section found (read 'binary') - Is a variable name equal to an LP file format keyword?
Warning: Duplicate section found (read 'binary') - Is a variable name equal to an LP file format keyword?
Warning: Duplicate section found (read 'binary') - Is a variable name equal to an LP file format keyword?
Warning: Duplicate section found (read 'binary') - Is a variable name equal to an LP file format keyword?
Warning: Further warnings of this type will be omitted.
Read LP format model from file /root/bgw/data/uploads/2026_03_24_16_14_13_set_vm-3-t1_vm-3-t1_s032_g001_max.lp
Reading time = 0.00 seconds
: 3122 rows, 316 columns, 9381 nonzeros

Using Gurobi shared library /opt/gurobi1301/linux64/lib/libgurobi.so.13.0.1

CPU model: AMD EPYC-Genoa Processor, instruction set [SSE2|AVX|AVX2|AVX512]
Thread count: 16 physical cores, 16 logical processors, using up to 16 threads

Optimize a model with 3122 rows, 316 columns and 9381 nonzeros (Max)
Model fingerprint: 0x5db2047a
Model has 25 linear objective coefficients
Variable types: 46 continuous, 270 integer (270 binary)
Coefficient statistics:
  Matrix range     [1e+00, 2e+01]
  Objective range  [1e+00, 1e+00]
  Bounds range     [1e+00, 1e+00]
  RHS range        [1e+00, 2e+01]

Found heuristic solution: objective 25.0000000
Presolve removed 418 rows and 80 columns
Presolve time: 0.01s
Presolved: 2704 rows, 236 columns, 8256 nonzeros
Variable types: 0 continuous, 236 integer (228 binary)
Found heuristic solution: objective 40.0000000

Root relaxation: objective 1.280000e+02, 251 iterations, 0.01 seconds (0.01 work units)

    Nodes    |    Current Node    |     Objective Bounds      |     Work
 Expl Unexpl |  Obj  Depth IntInf | Incumbent    BestBd   Gap | It/Node Time

     0     0  128.00000    0   49   40.00000  128.00000   220%     -    0s
H    0     0                      43.0000000  128.00000   198%     -    0s
H    0     0                      54.0000000  128.00000   137%     -    0s
H    0     0                      58.0000000  128.00000   121%     -    0s
     0     0  128.00000    0   46   58.00000  128.00000   121%     -    0s
H    0     0                      62.0000000  128.00000   106%     -    0s
H    0     0                      64.0000000  128.00000   100%     -    0s
     0     0  128.00000    0   42   64.00000  128.00000   100%     -    0s
     0     0  128.00000    0   22   64.00000  128.00000   100%     -    0s
     0     0  127.23684    0   21   64.00000  127.23684  98.8%     -    0s
     0     0  127.23684    0   21   64.00000  127.23684  98.8%     -    0s
     0     0  121.00000    0   39   64.00000  121.00000  89.1%     -    0s
     0     0  121.00000    0   33   64.00000  121.00000  89.1%     -    0s
H    0     0                      65.0000000  121.00000  86.2%     -    0s
H    0     0                      68.0000000  121.00000  77.9%     -    0s
     0     0  121.00000    0   31   68.00000  121.00000  77.9%     -    0s
     0     0  121.00000    0   24   68.00000  121.00000  77.9%     -    0s
     0     0  119.57895    0   33   68.00000  119.57895  75.9%     -    0s
     0     0  119.57895    0   30   68.00000  119.57895  75.9%     -    0s
     0     0  119.47368    0   34   68.00000  119.47368  75.7%     -    0s
     0     0  119.47368    0   22   68.00000  119.47368  75.7%     -    0s
     0     0  117.84211    0   22   68.00000  117.84211  73.3%     -    0s
     0     0  117.84211    0   22   68.00000  117.84211  73.3%     -    0s
     0     2  117.84211    0   22   68.00000  117.84211  73.3%     -    0s

Cutting planes:
  Inf proof: 7

Explored 10754 nodes (653107 simplex iterations) in 4.87 seconds (7.45 work units)
Thread count was 16 (of 16 available processors)

Solution count 10: 68 68 68 ... 43

Optimal solution found (tolerance 1.00e-04)
Best objective 6.800000000000e+01, best bound 6.800000000000e+01, gap 0.0000%

Wrote result file '/root/bgw/data/results/2026_03_24_16_14_13_set_vm-3-t1_vm-3-t1_s032_g001_max.sol'

